(set-info :smt-lib-version 2.6)
(set-logic UF)
(set-info :source |Benchmarks from the paper: "Extending Sledgehammer with SMT Solvers" by Jasmin Blanchette, Sascha Bohme, and Lawrence C. Paulson, CADE 2011.  Translated to SMT2 by Andrew Reynolds and Morgan Deters.|)
(set-info :category "industrial")
(set-info :status unknown)
(declare-sort S1 0)
(declare-sort S2 0)
(declare-sort S3 0)
(declare-sort S4 0)
(declare-sort S5 0)
(declare-sort S6 0)
(declare-sort S7 0)
(declare-sort S8 0)
(declare-sort S9 0)
(declare-sort S10 0)
(declare-sort S11 0)
(declare-sort S12 0)
(declare-sort S13 0)
(declare-sort S14 0)
(declare-sort S15 0)
(declare-sort S16 0)
(declare-sort S17 0)
(declare-sort S18 0)
(declare-fun f1 () S1)
(declare-fun f2 () S1)
(declare-fun f3 (S2) S1)
(declare-fun f4 (S3 S4) S2)
(declare-fun f5 () S3)
(declare-fun f6 () S4)
(declare-fun f7 (S5 S2) S3)
(declare-fun f8 (S6 S2) S5)
(declare-fun f9 () S6)
(declare-fun f10 () S5)
(declare-fun f11 (S7 S2) S2)
(declare-fun f12 () S7)
(declare-fun f13 (S8 S4) S9)
(declare-fun f14 (S8 S2 S9) S1)
(declare-fun f15 (S10 S2) S1)
(declare-fun f16 (S11 S2) S10)
(declare-fun f17 () S11)
(declare-fun f18 (S12 S9) S8)
(declare-fun f19 (S13 S4) S12)
(declare-fun f20 (S14 S8) S13)
(declare-fun f21 () S14)
(declare-fun f22 (S11 S2) S10)
(declare-fun f23 (S15 S4) S1)
(declare-fun f24 (S4) S15)
(declare-fun f25 (S16 S2) S7)
(declare-fun f26 () S16)
(declare-fun f27 () S4)
(declare-fun f28 (S17 S9) S9)
(declare-fun f29 (S18 S9) S17)
(declare-fun f30 () S18)
(assert (not (= f1 f2)))
(assert (not (= (f3 (f4 f5 f6)) f1)))
(assert (forall ((?v0 S4) (?v1 S4)) (= (= (f4 f5 ?v0) (f4 f5 ?v1)) (= ?v0 ?v1))))
(assert (forall ((?v0 S2) (?v1 S4) (?v2 S4)) (=> (= (f3 ?v0) f1) (= (f3 (f4 (f7 (f8 f9 ?v0) (f4 f5 ?v1)) ?v2)) f1))))
(assert (forall ((?v0 S2) (?v1 S4)) (=> (= (f3 ?v0) f1) (= (f3 (f4 (f7 f10 ?v0) ?v1)) f1))))
(assert (forall ((?v0 S2)) (=> (= (f3 ?v0) f1) (= (f3 (f11 f12 ?v0)) f1))))
(assert (forall ((?v0 S8) (?v1 S4) (?v2 S9)) (=> (= (f13 ?v0 ?v1) ?v2) (= (f14 ?v0 (f4 f5 ?v1) ?v2) f1))))
(assert (forall ((?v0 S8) (?v1 S4) (?v2 S9)) (=> (= (f14 ?v0 (f4 f5 ?v1) ?v2) f1) (=> (=> (= (f13 ?v0 ?v1) ?v2) false) false))))
(assert (forall ((?v0 S4) (?v1 S2)) (=> (= (f15 (f16 f17 (f4 f5 ?v0)) ?v1) f1) false)))
(assert (forall ((?v0 S4) (?v1 S2)) (= (f4 (f7 (f8 f9 (f4 f5 ?v0)) ?v1) ?v0) ?v1)))
(assert (forall ((?v0 S2) (?v1 S4)) (not (= (f11 f12 ?v0) (f4 f5 ?v1)))))
(assert (forall ((?v0 S4) (?v1 S2)) (not (= (f4 f5 ?v0) (f11 f12 ?v1)))))
(assert (forall ((?v0 S2) (?v1 S2)) (=> (= (f15 (f16 f17 ?v0) ?v1) f1) (= (f15 (f16 f17 (f11 f12 ?v0)) (f11 f12 ?v1)) f1))))
(assert (forall ((?v0 S2) (?v1 S2)) (= (= (f11 f12 ?v0) (f11 f12 ?v1)) (= ?v0 ?v1))))
(assert (forall ((?v0 S2) (?v1 S4) (?v2 S2)) (= (f4 (f7 (f8 f9 (f4 (f7 f10 ?v0) ?v1)) ?v2) ?v1) ?v0)))
(assert (forall ((?v0 S2) (?v1 S2) (?v2 S4)) (=> (= (f15 (f16 f17 ?v0) ?v1) f1) (= (f15 (f16 f17 (f4 (f7 f10 ?v0) ?v2)) (f4 (f7 f10 ?v1) ?v2)) f1))))
(assert (forall ((?v0 S2) (?v1 S2) (?v2 S2) (?v3 S4)) (=> (= (f15 (f16 f17 ?v0) ?v1) f1) (= (f15 (f16 f17 (f4 (f7 (f8 f9 ?v0) ?v2) ?v3)) (f4 (f7 (f8 f9 ?v1) ?v2) ?v3)) f1))))
(assert (forall ((?v0 S8) (?v1 S2) (?v2 S9) (?v3 S2)) (=> (= (f14 ?v0 ?v1 ?v2) f1) (=> (= (f15 (f16 f17 ?v1) ?v3) f1) (= (f14 ?v0 ?v3 ?v2) f1)))))
(assert (forall ((?v0 S2) (?v1 S2)) (=> (= (f15 (f16 f17 (f11 f12 ?v0)) ?v1) f1) (=> (forall ((?v2 S2)) (=> (= ?v1 (f11 f12 ?v2)) (=> (= (f15 (f16 f17 ?v0) ?v2) f1) false))) false))))
(assert (forall ((?v0 S8) (?v1 S2) (?v2 S9) (?v3 S4) (?v4 S9)) (=> (= (f14 ?v0 ?v1 ?v2) f1) (= (f14 (f18 (f19 (f20 f21 ?v0) ?v3) ?v4) (f4 (f7 f10 ?v1) ?v3) ?v2) f1))))
(assert (forall ((?v0 S8) (?v1 S2) (?v2 S9) (?v3 S8) (?v4 S2) (?v5 S9) (?v6 S4)) (=> (= (f14 ?v0 ?v1 ?v2) f1) (=> (= (f14 ?v3 ?v4 ?v5) f1) (=> (= ?v0 (f18 (f19 (f20 f21 ?v3) ?v6) ?v5)) (= (f14 ?v3 (f4 (f7 (f8 f9 ?v1) ?v4) ?v6) ?v2) f1))))))
(assert (forall ((?v0 S2) (?v1 S2)) (=> (= (f15 (f22 f17 ?v0) ?v1) f1) (= (f15 (f22 f17 (f11 f12 ?v0)) (f11 f12 ?v1)) f1))))
(assert (forall ((?v0 S4) (?v1 S4) (?v2 S2)) (let ((?v_0 (f4 f5 ?v0))) (=> (= (f23 (f24 ?v0) ?v1) f1) (= (f4 (f7 (f8 f9 ?v_0) ?v2) ?v1) ?v_0)))))
(assert (forall ((?v0 S2) (?v1 S2) (?v2 S4)) (=> (= (f15 (f22 f17 ?v0) ?v1) f1) (= (f15 (f22 f17 (f4 (f7 f10 ?v0) ?v2)) (f4 (f7 f10 ?v1) ?v2)) f1))))
(assert (forall ((?v0 S2) (?v1 S2) (?v2 S2) (?v3 S4)) (let ((?v_0 (f8 f9 ?v2))) (=> (= (f15 (f16 f17 ?v0) ?v1) f1) (= (f15 (f22 f17 (f4 (f7 ?v_0 ?v0) ?v3)) (f4 (f7 ?v_0 ?v1) ?v3)) f1)))))
(assert (forall ((?v0 S2) (?v1 S2) (?v2 S2) (?v3 S4)) (=> (= (f15 (f22 f17 ?v0) ?v1) f1) (= (f15 (f22 f17 (f4 (f7 (f8 f9 ?v0) ?v2) ?v3)) (f4 (f7 (f8 f9 ?v1) ?v2) ?v3)) f1))))
(assert (forall ((?v0 S2) (?v1 S2) (?v2 S2) (?v3 S4)) (let ((?v_0 (f8 f9 ?v2))) (=> (= (f15 (f22 f17 ?v0) ?v1) f1) (= (f15 (f22 f17 (f4 (f7 ?v_0 ?v0) ?v3)) (f4 (f7 ?v_0 ?v1) ?v3)) f1)))))
(assert (forall ((?v0 S2) (?v1 S2) (?v2 S8) (?v3 S9)) (=> (= (f15 (f22 f17 ?v0) ?v1) f1) (=> (= (f14 ?v2 ?v0 ?v3) f1) (= (f14 ?v2 ?v1 ?v3) f1)))))
(assert (forall ((?v0 S2) (?v1 S2)) (= (f15 (f16 f17 (f11 (f25 f26 (f11 f12 ?v0)) ?v1)) (f4 (f7 (f8 f9 ?v0) ?v1) f27)) f1)))
(assert (forall ((?v0 S2) (?v1 S2) (?v2 S2)) (let ((?v_0 (f25 f26 ?v2))) (=> (= (f15 (f16 f17 ?v0) ?v1) f1) (= (f15 (f16 f17 (f11 ?v_0 ?v0)) (f11 ?v_0 ?v1)) f1)))))
(assert (forall ((?v0 S2) (?v1 S2) (?v2 S2)) (=> (= (f15 (f16 f17 ?v0) ?v1) f1) (= (f15 (f16 f17 (f11 (f25 f26 ?v0) ?v2)) (f11 (f25 f26 ?v1) ?v2)) f1))))
(assert (forall ((?v0 S2) (?v1 S2) (?v2 S2) (?v3 S2)) (=> (= (f15 (f22 f17 ?v0) ?v1) f1) (=> (= (f15 (f22 f17 ?v2) ?v3) f1) (= (f15 (f22 f17 (f11 (f25 f26 ?v0) ?v2)) (f11 (f25 f26 ?v1) ?v3)) f1)))))
(assert (forall ((?v0 S2) (?v1 S2) (?v2 S2) (?v3 S2)) (= (= (f11 (f25 f26 ?v0) ?v1) (f11 (f25 f26 ?v2) ?v3)) (and (= ?v0 ?v2) (= ?v1 ?v3)))))
(assert (forall ((?v0 S4) (?v1 S4) (?v2 S8) (?v3 S9)) (=> (= (f23 (f24 ?v0) ?v1) f1) (= (f13 (f18 (f19 (f20 f21 ?v2) ?v1) ?v3) ?v0) (f13 ?v2 ?v0)))))
(assert (forall ((?v0 S4) (?v1 S4) (?v2 S8) (?v3 S9)) (=> (= ?v0 ?v1) (= (f13 (f18 (f19 (f20 f21 ?v2) ?v0) ?v3) ?v1) ?v3))))
(assert (forall ((?v0 S2) (?v1 S2) (?v2 S2)) (let ((?v_0 (f25 f26 ?v2))) (=> (= (f15 (f22 f17 ?v0) ?v1) f1) (= (f15 (f22 f17 (f11 ?v_0 ?v0)) (f11 ?v_0 ?v1)) f1)))))
(assert (forall ((?v0 S2) (?v1 S2) (?v2 S2)) (=> (= (f15 (f22 f17 ?v0) ?v1) f1) (= (f15 (f22 f17 (f11 (f25 f26 ?v0) ?v2)) (f11 (f25 f26 ?v1) ?v2)) f1))))
(assert (forall ((?v0 S4) (?v1 S2) (?v2 S2)) (not (= (f4 f5 ?v0) (f11 (f25 f26 ?v1) ?v2)))))
(assert (forall ((?v0 S2) (?v1 S2) (?v2 S4)) (not (= (f11 (f25 f26 ?v0) ?v1) (f4 f5 ?v2)))))
(assert (forall ((?v0 S2) (?v1 S2) (?v2 S2)) (not (= (f11 (f25 f26 ?v0) ?v1) (f11 f12 ?v2)))))
(assert (forall ((?v0 S2) (?v1 S2) (?v2 S2)) (not (= (f11 f12 ?v0) (f11 (f25 f26 ?v1) ?v2)))))
(assert (forall ((?v0 S2) (?v1 S2) (?v2 S2) (?v3 S4)) (= (f4 (f7 (f8 f9 (f11 (f25 f26 ?v0) ?v1)) ?v2) ?v3) (f11 (f25 f26 (f4 (f7 (f8 f9 ?v0) ?v2) ?v3)) (f4 (f7 (f8 f9 ?v1) ?v2) ?v3)))))
(assert (forall ((?v0 S2) (?v1 S2) (?v2 S4)) (= (f4 (f7 f10 (f11 (f25 f26 ?v0) ?v1)) ?v2) (f11 (f25 f26 (f4 (f7 f10 ?v0) ?v2)) (f4 (f7 f10 ?v1) ?v2)))))
(assert (forall ((?v0 S8) (?v1 S2) (?v2 S9)) (=> (= (f14 ?v0 (f11 f12 ?v1) ?v2) f1) (=> (forall ((?v3 S9) (?v4 S9)) (=> (= (f14 (f18 (f19 (f20 f21 ?v0) f27) ?v3) ?v1 ?v4) f1) false)) false))))
(assert (forall ((?v0 S4)) (=> (= (f23 (f24 ?v0) f27) f1) false)))
(assert (forall ((?v0 S11) (?v1 S2) (?v2 S2)) (=> (= (f15 (f16 ?v0 ?v1) ?v2) f1) (= (f15 (f22 ?v0 ?v1) ?v2) f1))))
(assert (forall ((?v0 S11) (?v1 S2)) (= (f15 (f22 ?v0 ?v1) ?v1) f1)))
(assert (forall ((?v0 S2) (?v1 S2) (?v2 S2)) (=> (= (f15 (f16 f17 (f11 (f25 f26 ?v0) ?v1)) ?v2) f1) (=> (forall ((?v3 S2)) (=> (= ?v2 (f4 (f7 (f8 f9 ?v3) ?v1) f27)) (=> (= ?v0 (f11 f12 ?v3)) false))) (=> (forall ((?v3 S2)) (=> (= ?v2 (f11 (f25 f26 ?v3) ?v1)) (=> (= (f15 (f16 f17 ?v0) ?v3) f1) false))) (=> (forall ((?v3 S2)) (=> (= ?v2 (f11 (f25 f26 ?v0) ?v3)) (=> (= (f15 (f16 f17 ?v1) ?v3) f1) false))) false))))))
(assert (forall ((?v0 S8) (?v1 S9) (?v2 S2) (?v3 S9)) (=> (= (f14 (f18 (f19 (f20 f21 ?v0) f27) ?v1) ?v2 ?v3) f1) (= (f14 ?v0 (f11 f12 ?v2) (f28 (f29 f30 ?v1) ?v3)) f1))))
(assert (forall ((?v0 S4)) (=> (=> (= ?v0 f27) false) (= (f23 (f24 f27) ?v0) f1))))
(assert (forall ((?v0 S4) (?v1 S4)) (=> (= (f23 (f24 ?v0) ?v1) f1) (not (= ?v1 f27)))))
(assert (forall ((?v0 S4)) (= (= (f23 (f24 ?v0) f27) f1) false)))
(assert (forall ((?v0 S8) (?v1 S2) (?v2 S9) (?v3 S9) (?v4 S2)) (=> (= (f14 ?v0 ?v1 (f28 (f29 f30 ?v2) ?v3)) f1) (=> (= (f14 ?v0 ?v4 ?v2) f1) (= (f14 ?v0 (f11 (f25 f26 ?v1) ?v4) ?v3) f1)))))
(assert (forall ((?v0 S9) (?v1 S9) (?v2 S9) (?v3 S9)) (= (= (f28 (f29 f30 ?v0) ?v1) (f28 (f29 f30 ?v2) ?v3)) (and (= ?v0 ?v2) (= ?v1 ?v3)))))
(assert (forall ((?v0 S4)) (not (= (f23 (f24 ?v0) ?v0) f1))))
(assert (forall ((?v0 S4) (?v1 S4)) (= (not (= ?v0 ?v1)) (or (= (f23 (f24 ?v0) ?v1) f1) (= (f23 (f24 ?v1) ?v0) f1)))))
(assert (forall ((?v0 S4) (?v1 S4)) (=> (not (= ?v0 ?v1)) (=> (=> (= (f23 (f24 ?v0) ?v1) f1) false) (=> (=> (= (f23 (f24 ?v1) ?v0) f1) false) false)))))
(assert (forall ((?v0 S4)) (=> (= (f23 (f24 ?v0) ?v0) f1) false)))
(assert (forall ((?v0 S4) (?v1 S4)) (=> (= (f23 (f24 ?v0) ?v1) f1) (not (= ?v1 ?v0)))))
(check-sat)
(exit)
